(set-info :smt-lib-version 2.6)
(set-info :category "crafted")
(set-logic QF_FFA)
(define-sort FF0 () (_ FiniteField 52435875175126190479447740508185965837690552500527637822603658699938581184513))
(declare-fun return_n3_alt () FF0)
(declare-fun mul_n31_alt () FF0)
(declare-fun mul_n45_alt () FF0)
(declare-fun mul_n38_alt () FF0)
(declare-fun mul_n44_alt () FF0)
(declare-fun mul_n41_alt () FF0)
(declare-fun mul_n43_alt () FF0)
(declare-fun mul_n20_alt () FF0)
(declare-fun mul_n12_alt () FF0)
(declare-fun mul_n39_alt () FF0)
(declare-fun mul_n40_alt () FF0)
(declare-fun mul_n22_alt () FF0)
(declare-fun mul_n42_alt () FF0)
(declare-fun mul_n8_alt () FF0)
(declare-fun c_n2_alt () FF0)
(declare-fun mul_n32_alt () FF0)
(declare-fun mul_n17_alt () FF0)
(declare-fun mul_n21_alt () FF0)
(declare-fun mul_n11_alt () FF0)
(declare-fun b_n4_alt () FF0)
(declare-fun mul_n9_alt () FF0)
(declare-fun mul_n37_alt () FF0)
(declare-fun mul_n36_alt () FF0)
(declare-fun mul_n35_alt () FF0)
(declare-fun e_n0_alt () FF0)
(declare-fun mul_n34_alt () FF0)
(declare-fun mul_n27_alt () FF0)
(declare-fun mul_n26_alt () FF0)
(declare-fun mul_n33_alt () FF0)
(declare-fun mul_n19_alt () FF0)
(declare-fun mul_n7_alt () FF0)
(declare-fun d_n1_alt () FF0)
(declare-fun mul_n30_alt () FF0)
(declare-fun mul_n29_alt () FF0)
(declare-fun mul_n28_alt () FF0)
(declare-fun f_n5_alt () FF0)
(declare-fun mul_n25_alt () FF0)
(declare-fun a_n6_alt () FF0)
(declare-fun mul_n24_alt () FF0)
(declare-fun mul_n10_alt () FF0)
(declare-fun mul_n23_alt () FF0)
(declare-fun mul_n18_alt () FF0)
(declare-fun mul_n16_alt () FF0)
(declare-fun mul_n15_alt () FF0)
(declare-fun mul_n14_alt () FF0)
(declare-fun mul_n13_alt () FF0)
(declare-fun return_n3 () FF0)
(declare-fun mul_n31 () FF0)
(declare-fun mul_n45 () FF0)
(declare-fun mul_n38 () FF0)
(declare-fun mul_n44 () FF0)
(declare-fun mul_n41 () FF0)
(declare-fun mul_n43 () FF0)
(declare-fun mul_n20 () FF0)
(declare-fun mul_n12 () FF0)
(declare-fun mul_n39 () FF0)
(declare-fun mul_n40 () FF0)
(declare-fun mul_n22 () FF0)
(declare-fun mul_n42 () FF0)
(declare-fun mul_n8 () FF0)
(declare-fun c_n2 () FF0)
(declare-fun mul_n32 () FF0)
(declare-fun mul_n17 () FF0)
(declare-fun mul_n21 () FF0)
(declare-fun mul_n11 () FF0)
(declare-fun b_n4 () FF0)
(declare-fun mul_n9 () FF0)
(declare-fun mul_n37 () FF0)
(declare-fun mul_n36 () FF0)
(declare-fun mul_n35 () FF0)
(declare-fun e_n0 () FF0)
(declare-fun mul_n34 () FF0)
(declare-fun mul_n27 () FF0)
(declare-fun mul_n26 () FF0)
(declare-fun mul_n33 () FF0)
(declare-fun mul_n19 () FF0)
(declare-fun mul_n7 () FF0)
(declare-fun d_n1 () FF0)
(declare-fun mul_n30 () FF0)
(declare-fun mul_n29 () FF0)
(declare-fun mul_n28 () FF0)
(declare-fun f_n5 () FF0)
(declare-fun mul_n25 () FF0)
(declare-fun a_n6 () FF0)
(declare-fun mul_n24 () FF0)
(declare-fun mul_n10 () FF0)
(declare-fun mul_n23 () FF0)
(declare-fun mul_n18 () FF0)
(declare-fun mul_n16 () FF0)
(declare-fun mul_n15 () FF0)
(declare-fun mul_n14 () FF0)
(declare-fun mul_n13 () FF0)
(assert 
  (let ((let0 (as ff1 FF0)))
  (let ((let1 (as ff52435875175126190479447740508185965837690552500527637822603658699938581184512 FF0)))
  (let ((let2 return_n3_alt))
  (let ((let3 (ff.mul let2 let1)))
  (let ((let4 (ff.add let3 let0)))
  (let ((let5 mul_n31_alt))
  (let ((let6 (ff.mul let5 let1)))
  (let ((let7 (ff.add let6 let0)))
  (let ((let8 mul_n45_alt))
  (let ((let9 (ff.mul let8 let7)))
  (let ((let10 (= let9 let4)))
  (let ((let11 mul_n38_alt))
  (let ((let12 mul_n44_alt))
  (let ((let13 (ff.mul let12 let11)))
  (let ((let14 (= let13 let8)))
  (let ((let15 mul_n41_alt))
  (let ((let16 mul_n43_alt))
  (let ((let17 (ff.mul let16 let1)))
  (let ((let18 mul_n20_alt))
  (let ((let19 mul_n12_alt))
  (let ((let20 mul_n39_alt))
  (let ((let21 mul_n40_alt))
  (let ((let22 (ff.mul let21 let1)))
  (let ((let23 (ff.add let22 let20 let19 let18 let17)))
  (let ((let24 (ff.mul let23 let15)))
  (let ((let25 (= let24 let12)))
  (let ((let26 mul_n22_alt))
  (let ((let27 (ff.mul let26 let1)))
  (let ((let28 mul_n42_alt))
  (let ((let29 (ff.add let22 let28 let20 let19 let18 let27)))
  (let ((let30 mul_n8_alt))
  (let ((let31 (ff.mul let30 let1)))
  (let ((let32 (ff.add let31 let0)))
  (let ((let33 (ff.mul let32 let29)))
  (let ((let34 (= let33 let16)))
  (let ((let35 c_n2_alt))
  (let ((let36 (ff.mul let35 let1)))
  (let ((let37 (ff.add let36 let26)))
  (let ((let38 mul_n32_alt))
  (let ((let39 (ff.mul let38 let1)))
  (let ((let40 (ff.add let39 let0)))
  (let ((let41 (ff.mul let40 let37)))
  (let ((let42 (= let41 let28)))
  (let ((let43 (ff.add let22 let20 let19 let18)))
  (let ((let44 mul_n17_alt))
  (let ((let45 (ff.mul let44 let43)))
  (let ((let46 (= let45 let15)))
  (let ((let47 (ff.add let18 let20)))
  (let ((let48 (as ff2 FF0)))
  (let ((let49 (ff.mul let19 let48)))
  (let ((let50 (ff.mul let49 let47)))
  (let ((let51 (= let50 let21)))
  (let ((let52 mul_n21_alt))
  (let ((let53 (ff.mul let52 let1)))
  (let ((let54 (ff.mul let18 let1)))
  (let ((let55 (ff.add let54 let53 let0)))
  (let ((let56 mul_n11_alt))
  (let ((let57 b_n4_alt))
  (let ((let58 (ff.mul let57 let1)))
  (let ((let59 (ff.add let58 let36 let56 let0)))
  (let ((let60 (ff.mul let59 let55)))
  (let ((let61 (= let60 let20)))
  (let ((let62 mul_n9_alt))
  (let ((let63 (ff.mul let62 let1)))
  (let ((let64 (ff.add let31 let63 let57 let0)))
  (let ((let65 mul_n37_alt))
  (let ((let66 (ff.mul let65 let64)))
  (let ((let67 (= let66 let11)))
  (let ((let68 (ff.add let58 let0)))
  (let ((let69 mul_n36_alt))
  (let ((let70 (ff.mul let69 let68)))
  (let ((let71 (= let70 let65)))
  (let ((let72 mul_n35_alt))
  (let ((let73 (ff.mul let72 let38)))
  (let ((let74 (= let73 let69)))
  (let ((let75 e_n0_alt))
  (let ((let76 (ff.mul let75 let1)))
  (let ((let77 (ff.add let76 let0)))
  (let ((let78 mul_n34_alt))
  (let ((let79 (ff.mul let78 let77)))
  (let ((let80 (= let79 let72)))
  (let ((let81 mul_n27_alt))
  (let ((let82 mul_n26_alt))
  (let ((let83 (ff.mul let82 let1)))
  (let ((let84 (ff.add let83 let81 let0)))
  (let ((let85 mul_n33_alt))
  (let ((let86 (ff.mul let85 let84)))
  (let ((let87 (= let86 let78)))
  (let ((let88 mul_n19_alt))
  (let ((let89 (ff.mul let88 let1)))
  (let ((let90 (ff.add let89 let0)))
  (let ((let91 (ff.mul let19 let1)))
  (let ((let92 (ff.add let91 let0)))
  (let ((let93 (ff.mul let92 let90)))
  (let ((let94 (= let93 let85)))
  (let ((let95 (ff.add let53 let0)))
  (let ((let96 mul_n7_alt))
  (let ((let97 d_n1_alt))
  (let ((let98 (ff.add let97 let96)))
  (let ((let99 (ff.mul let98 let95)))
  (let ((let100 (= let99 let38)))
  (let ((let101 mul_n30_alt))
  (let ((let102 (ff.add let83 let0)))
  (let ((let103 (ff.mul let102 let101)))
  (let ((let104 (= let103 let5)))
  (let ((let105 mul_n29_alt))
  (let ((let106 (ff.mul let105 let52)))
  (let ((let107 (= let106 let101)))
  (let ((let108 mul_n28_alt))
  (let ((let109 (ff.mul let108 let84)))
  (let ((let110 (= let109 let105)))
  (let ((let111 f_n5_alt))
  (let ((let112 (ff.mul let111 let1)))
  (let ((let113 (ff.add let112 let0)))
  (let ((let114 (ff.mul let32 let113)))
  (let ((let115 (= let114 let108)))
  (let ((let116 (ff.add let30 let82 let58 let62 let1)))
  (let ((let117 (ff.mul let19 let116)))
  (let ((let118 (= let117 let81)))
  (let ((let119 mul_n25_alt))
  (let ((let120 a_n6_alt))
  (let ((let121 (ff.mul let120 let1)))
  (let ((let122 (ff.add let121 let0)))
  (let ((let123 mul_n24_alt))
  (let ((let124 (ff.mul let123 let122)))
  (let ((let125 (= let124 let119)))
  (let ((let126 mul_n10_alt))
  (let ((let127 (ff.mul let126 let1)))
  (let ((let128 (ff.add let111 let127 let120)))
  (let ((let129 mul_n23_alt))
  (let ((let130 (ff.mul let129 let128)))
  (let ((let131 (= let130 let123)))
  (let ((let132 (ff.add let54 let0)))
  (let ((let133 (ff.mul let26 let132)))
  (let ((let134 (= let133 let129)))
  (let ((let135 (ff.mul let97 let1)))
  (let ((let136 (ff.add let135 let0)))
  (let ((let137 (ff.mul let136 let77)))
  (let ((let138 (= let137 let26)))
  (let ((let139 (ff.mul let132 let64)))
  (let ((let140 (= let139 let52)))
  (let ((let141 (ff.mul let75 let90)))
  (let ((let142 (= let141 let18)))
  (let ((let143 mul_n18_alt))
  (let ((let144 (ff.mul let44 let1)))
  (let ((let145 (ff.add let144 let0)))
  (let ((let146 (ff.mul let145 let143)))
  (let ((let147 (= let146 let88)))
  (let ((let148 (ff.add let36 let0)))
  (let ((let149 (ff.mul let44 let148)))
  (let ((let150 (= let149 let143)))
  (let ((let151 (ff.mul let96 let1)))
  (let ((let152 (ff.add let135 let151 let0)))
  (let ((let153 mul_n16_alt))
  (let ((let154 (ff.mul let153 let152)))
  (let ((let155 (= let154 let44)))
  (let ((let156 mul_n15_alt))
  (let ((let157 (ff.mul let156 let77)))
  (let ((let158 (= let157 let153)))
  (let ((let159 mul_n14_alt))
  (let ((let160 (ff.mul let159 let128)))
  (let ((let161 (= let160 let156)))
  (let ((let162 mul_n13_alt))
  (let ((let163 (ff.mul let162 let136)))
  (let ((let164 (= let163 let159)))
  (let ((let165 (ff.mul let56 let1)))
  (let ((let166 (ff.add let57 let35 let165)))
  (let ((let167 (ff.mul let166 let19)))
  (let ((let168 (= let167 let162)))
  (let ((let169 (ff.mul let128 let166)))
  (let ((let170 (= let169 let19)))
  (let ((let171 (ff.mul let35 let48)))
  (let ((let172 (ff.mul let171 let57)))
  (let ((let173 (= let172 let56)))
  (let ((let174 (ff.mul let120 let48)))
  (let ((let175 (ff.mul let174 let111)))
  (let ((let176 (= let175 let126)))
  (let ((let177 (as ff52435875175126190479447740508185965837690552500527637822603658699938581184511 FF0)))
  (let ((let178 (ff.mul let30 let177)))
  (let ((let179 (ff.add let178 let48)))
  (let ((let180 (ff.mul let179 let57)))
  (let ((let181 (= let180 let62)))
  (let ((let182 (ff.mul let152 let98)))
  (let ((let183 (= let182 let30)))
  (let ((let184 (ff.add let111 let135)))
  (let ((let185 (ff.mul let120 let184)))
  (let ((let186 (= let185 let96)))
  (let ((let187 (and let186 let183 let181 let176 let173 let170 let168 let164 let161 let158 let155 let150 let147 let142 let140 let138 let134 let131 let125 let118 let115 let110 let107 let104 let100 let94 let87 let80 let74 let71 let67 let61 let51 let46 let42 let34 let25 let14 let10)))
  (let ((let188 return_n3))
  (let ((let189 (ff.mul let188 let1)))
  (let ((let190 (ff.add let189 let0)))
  (let ((let191 mul_n31))
  (let ((let192 (ff.mul let191 let1)))
  (let ((let193 (ff.add let192 let0)))
  (let ((let194 mul_n45))
  (let ((let195 (ff.mul let194 let193)))
  (let ((let196 (= let195 let190)))
  (let ((let197 mul_n38))
  (let ((let198 mul_n44))
  (let ((let199 (ff.mul let198 let197)))
  (let ((let200 (= let199 let194)))
  (let ((let201 mul_n41))
  (let ((let202 mul_n43))
  (let ((let203 (ff.mul let202 let1)))
  (let ((let204 mul_n20))
  (let ((let205 mul_n12))
  (let ((let206 mul_n39))
  (let ((let207 mul_n40))
  (let ((let208 (ff.mul let207 let1)))
  (let ((let209 (ff.add let208 let206 let205 let204 let203)))
  (let ((let210 (ff.mul let209 let201)))
  (let ((let211 (= let210 let198)))
  (let ((let212 mul_n22))
  (let ((let213 (ff.mul let212 let1)))
  (let ((let214 mul_n42))
  (let ((let215 (ff.add let208 let214 let206 let205 let204 let213)))
  (let ((let216 mul_n8))
  (let ((let217 (ff.mul let216 let1)))
  (let ((let218 (ff.add let217 let0)))
  (let ((let219 (ff.mul let218 let215)))
  (let ((let220 (= let219 let202)))
  (let ((let221 c_n2))
  (let ((let222 (ff.mul let221 let1)))
  (let ((let223 (ff.add let222 let212)))
  (let ((let224 mul_n32))
  (let ((let225 (ff.mul let224 let1)))
  (let ((let226 (ff.add let225 let0)))
  (let ((let227 (ff.mul let226 let223)))
  (let ((let228 (= let227 let214)))
  (let ((let229 (ff.add let208 let206 let205 let204)))
  (let ((let230 mul_n17))
  (let ((let231 (ff.mul let230 let229)))
  (let ((let232 (= let231 let201)))
  (let ((let233 (ff.add let204 let206)))
  (let ((let234 (ff.mul let205 let48)))
  (let ((let235 (ff.mul let234 let233)))
  (let ((let236 (= let235 let207)))
  (let ((let237 mul_n21))
  (let ((let238 (ff.mul let237 let1)))
  (let ((let239 (ff.mul let204 let1)))
  (let ((let240 (ff.add let239 let238 let0)))
  (let ((let241 mul_n11))
  (let ((let242 b_n4))
  (let ((let243 (ff.mul let242 let1)))
  (let ((let244 (ff.add let243 let222 let241 let0)))
  (let ((let245 (ff.mul let244 let240)))
  (let ((let246 (= let245 let206)))
  (let ((let247 mul_n9))
  (let ((let248 (ff.mul let247 let1)))
  (let ((let249 (ff.add let217 let248 let242 let0)))
  (let ((let250 mul_n37))
  (let ((let251 (ff.mul let250 let249)))
  (let ((let252 (= let251 let197)))
  (let ((let253 (ff.add let243 let0)))
  (let ((let254 mul_n36))
  (let ((let255 (ff.mul let254 let253)))
  (let ((let256 (= let255 let250)))
  (let ((let257 mul_n35))
  (let ((let258 (ff.mul let257 let224)))
  (let ((let259 (= let258 let254)))
  (let ((let260 e_n0))
  (let ((let261 (ff.mul let260 let1)))
  (let ((let262 (ff.add let261 let0)))
  (let ((let263 mul_n34))
  (let ((let264 (ff.mul let263 let262)))
  (let ((let265 (= let264 let257)))
  (let ((let266 mul_n27))
  (let ((let267 mul_n26))
  (let ((let268 (ff.mul let267 let1)))
  (let ((let269 (ff.add let268 let266 let0)))
  (let ((let270 mul_n33))
  (let ((let271 (ff.mul let270 let269)))
  (let ((let272 (= let271 let263)))
  (let ((let273 mul_n19))
  (let ((let274 (ff.mul let273 let1)))
  (let ((let275 (ff.add let274 let0)))
  (let ((let276 (ff.mul let205 let1)))
  (let ((let277 (ff.add let276 let0)))
  (let ((let278 (ff.mul let277 let275)))
  (let ((let279 (= let278 let270)))
  (let ((let280 (ff.add let238 let0)))
  (let ((let281 mul_n7))
  (let ((let282 d_n1))
  (let ((let283 (ff.add let282 let281)))
  (let ((let284 (ff.mul let283 let280)))
  (let ((let285 (= let284 let224)))
  (let ((let286 mul_n30))
  (let ((let287 (ff.add let268 let0)))
  (let ((let288 (ff.mul let287 let286)))
  (let ((let289 (= let288 let191)))
  (let ((let290 mul_n29))
  (let ((let291 (ff.mul let290 let237)))
  (let ((let292 (= let291 let286)))
  (let ((let293 mul_n28))
  (let ((let294 (ff.mul let293 let269)))
  (let ((let295 (= let294 let290)))
  (let ((let296 f_n5))
  (let ((let297 (ff.mul let296 let1)))
  (let ((let298 (ff.add let297 let0)))
  (let ((let299 (ff.mul let218 let298)))
  (let ((let300 (= let299 let293)))
  (let ((let301 (ff.add let216 let267 let243 let247 let1)))
  (let ((let302 (ff.mul let205 let301)))
  (let ((let303 (= let302 let266)))
  (let ((let304 mul_n25))
  (let ((let305 a_n6))
  (let ((let306 (ff.mul let305 let1)))
  (let ((let307 (ff.add let306 let0)))
  (let ((let308 mul_n24))
  (let ((let309 (ff.mul let308 let307)))
  (let ((let310 (= let309 let304)))
  (let ((let311 mul_n10))
  (let ((let312 (ff.mul let311 let1)))
  (let ((let313 (ff.add let296 let312 let305)))
  (let ((let314 mul_n23))
  (let ((let315 (ff.mul let314 let313)))
  (let ((let316 (= let315 let308)))
  (let ((let317 (ff.add let239 let0)))
  (let ((let318 (ff.mul let212 let317)))
  (let ((let319 (= let318 let314)))
  (let ((let320 (ff.mul let282 let1)))
  (let ((let321 (ff.add let320 let0)))
  (let ((let322 (ff.mul let321 let262)))
  (let ((let323 (= let322 let212)))
  (let ((let324 (ff.mul let317 let249)))
  (let ((let325 (= let324 let237)))
  (let ((let326 (ff.mul let260 let275)))
  (let ((let327 (= let326 let204)))
  (let ((let328 mul_n18))
  (let ((let329 (ff.mul let230 let1)))
  (let ((let330 (ff.add let329 let0)))
  (let ((let331 (ff.mul let330 let328)))
  (let ((let332 (= let331 let273)))
  (let ((let333 (ff.add let222 let0)))
  (let ((let334 (ff.mul let230 let333)))
  (let ((let335 (= let334 let328)))
  (let ((let336 (ff.mul let281 let1)))
  (let ((let337 (ff.add let320 let336 let0)))
  (let ((let338 mul_n16))
  (let ((let339 (ff.mul let338 let337)))
  (let ((let340 (= let339 let230)))
  (let ((let341 mul_n15))
  (let ((let342 (ff.mul let341 let262)))
  (let ((let343 (= let342 let338)))
  (let ((let344 mul_n14))
  (let ((let345 (ff.mul let344 let313)))
  (let ((let346 (= let345 let341)))
  (let ((let347 mul_n13))
  (let ((let348 (ff.mul let347 let321)))
  (let ((let349 (= let348 let344)))
  (let ((let350 (ff.mul let241 let1)))
  (let ((let351 (ff.add let242 let221 let350)))
  (let ((let352 (ff.mul let351 let205)))
  (let ((let353 (= let352 let347)))
  (let ((let354 (ff.mul let313 let351)))
  (let ((let355 (= let354 let205)))
  (let ((let356 (ff.mul let221 let48)))
  (let ((let357 (ff.mul let356 let242)))
  (let ((let358 (= let357 let241)))
  (let ((let359 (ff.mul let305 let48)))
  (let ((let360 (ff.mul let359 let296)))
  (let ((let361 (= let360 let311)))
  (let ((let362 (ff.mul let216 let177)))
  (let ((let363 (ff.add let362 let48)))
  (let ((let364 (ff.mul let363 let242)))
  (let ((let365 (= let364 let247)))
  (let ((let366 (ff.mul let337 let283)))
  (let ((let367 (= let366 let216)))
  (let ((let368 (ff.add let296 let320)))
  (let ((let369 (ff.mul let305 let368)))
  (let ((let370 (= let369 let281)))
  (let ((let371 (and let370 let367 let365 let361 let358 let355 let353 let349 let346 let343 let340 let335 let332 let327 let325 let323 let319 let316 let310 let303 let300 let295 let292 let289 let285 let279 let272 let265 let259 let256 let252 let246 let236 let232 let228 let220 let211 let200 let196)))
  (let ((let372 (= let188 let2)))
  (let ((let373 (not let372)))
  (let ((let374 (= let282 let97)))
  (let ((let375 (= let260 let75)))
  (let ((let376 (= let296 let111)))
  (let ((let377 (= let305 let120)))
  (let ((let378 (= let242 let57)))
  (let ((let379 (= let221 let35)))
  (let ((let380 (and let379 let378 let377 let376 let375 let374)))
  (let ((let381 (and let380 let373 let371 let187)))
  let381
))))))))))))))))))))))))))))))))))))))))))))))))))))))))))))))))))))))))))))))))))))))))))))))))))))))))))))))))))))))))))))))))))))))))))))))))))))))))))))))))))))))))))))))))))))))))))))))))))))))))))))))))))))))))))))))))))))))))))))))))))))))))))))))))))))))))))))))))))))))))))))))))))))))))))))))))))))))))))))))))))))))))))))))))))))))))))))))))))))))))))))))))))))))))))))))
)
(check-sat)
